proyfinal/src/viki/013/experimentInOfficeAgust.take6.output/a3e8e53f-7c08-43d0-8bff-d4b809a4b5cf.als.out
Reading from standard input... Use '--help' for help.
============================[ Problem Statistics ]=============================
|                                                                             |
|  Number of variables:         87638                                         |
|  Number of clauses:          161767                                         |
|  Parse time:                   0.04 s                                       |
|                                                                             |
============================[ Search Statistics ]==============================
| Conflicts |          ORIGINAL         |          LEARNT          | Progress |
|           |    Vars  Clauses Literals |    Limit  Clauses Lit/Cl |          |
===============================================================================
|       100 |   62811   106679   266583 |    39115      100     12 | 28.329 % |
|       250 |   62811   106679   266583 |    43027      250     51 | 28.329 % |
|       475 |   62811   106679   266583 |    47329      475     70 | 28.329 % |
|       812 |   52556    77009   193604 |    52062      803     60 | 40.031 % |
|      1318 |   52556    76891   193318 |    57269     1305     52 | 40.031 % |
|      2077 |   52556    76891   193318 |    62996     2064     60 | 40.031 % |
|      3216 |   52524    76880   193296 |    69295     3199     67 | 40.067 % |
|      4924 |   52341    76330   192032 |    76225     4888     64 | 40.276 % |
|      7486 |   51232    72071   181082 |    83847     6966     63 | 41.541 % |
|     11330 |   50963    70877   178236 |    92232     9958     58 | 41.848 % |
===============================================================================
restarts              : 59
conflicts             : 13225          (8654 /sec)
decisions             : 49188          (0.00 % random) (32186 /sec)
propagations          : 16542002       (10824267 /sec)
conflict literals     : 732773         (44.05 % deleted)
Memory used           : 28.23 MB
CPU time              : 1.52823 s

UNSATISFIABLE
